words_easy_train/words_987_SAT.qaiger
aag 55 24 0 1 31
24
16
38
34
30
8
48
18
14
6
20
26
4
36
32
10
46
12
28
2
44
22
42
40
111
50 42 22
52 50 11
54 48 28
56 54 17
58 57 53
60 51 10
62 44 24
64 62 13
66 65 61
68 66 58
70 46 26
72 70 14
74 71 15
76 75 73
78 63 12
80 79 3
82 80 77
84 82 68
86 40 20
88 86 9
90 87 8
92 91 89
94 38 18
96 94 7
98 95 6
100 99 97
102 55 16
104 103 5
106 104 100
108 106 92
110 108 84
i0 1 x1[3]
i1 2 y2[7]
i2 1 x2[2]
i3 1 x2[0]
i4 1 x1[6]
i5 2 y2[3]
i6 1 x2[7]
i7 1 x1[0]
i8 2 y2[6]
i9 2 y2[2]
i10 1 x1[1]
i11 1 x1[4]
i12 2 y2[1]
i13 1 x2[1]
i14 1 x1[7]
i15 2 y2[4]
i16 1 x2[6]
i17 2 y2[5]
i18 1 x1[5]
i19 2 y2[0]
i20 1 x2[5]
i21 1 x1[2]
i22 1 x2[4]
i23 1 x2[3]
o0 bool[0]
c
simplified
  !=
    2 y2
    and
      << 2
        1 x1
      1 x2
