words_easy_train/words_987_SAT.qaiger.qdimacs
p cnf 55 94
a 9 10 11 12 13 14 15 16 17 18 19 20 21 22 23 24 0
e 1 2 3 4 5 6 7 8 25 26 27 28 29 30 31 32 33 34 35 36 37 38 39 40 41 42 43 44 45 46 47 48 49 50 51 52 53 54 55 0
-21 -11 25 0
21 -25 0
11 -25 0
-25 5 26 0
25 -26 0
-5 -26 0
-24 -14 27 0
24 -27 0
14 -27 0
-27 8 28 0
27 -28 0
-8 -28 0
28 26 29 0
-28 -29 0
-26 -29 0
25 -5 30 0
-25 -30 0
5 -30 0
-22 -12 31 0
22 -31 0
12 -31 0
-31 6 32 0
31 -32 0
-6 -32 0
32 30 33 0
-32 -33 0
-30 -33 0
-33 -29 34 0
33 -34 0
29 -34 0
-23 -13 35 0
23 -35 0
13 -35 0
-35 -7 36 0
35 -36 0
7 -36 0
35 7 37 0
-35 -37 0
-7 -37 0
37 36 38 0
-37 -38 0
-36 -38 0
31 -6 39 0
-31 -39 0
6 -39 0
39 1 40 0
-39 -40 0
-1 -40 0
-40 38 41 0
40 -41 0
-38 -41 0
-41 -34 42 0
41 -42 0
34 -42 0
-20 -10 43 0
20 -43 0
10 -43 0
-43 4 44 0
43 -44 0
-4 -44 0
43 -4 45 0
-43 -45 0
4 -45 0
45 44 46 0
-45 -46 0
-44 -46 0
-19 -9 47 0
19 -47 0
9 -47 0
-47 3 48 0
47 -48 0
-3 -48 0
47 -3 49 0
-47 -49 0
3 -49 0
49 48 50 0
-49 -50 0
-48 -50 0
27 -8 51 0
-27 -51 0
8 -51 0
51 2 52 0
-51 -52 0
-2 -52 0
-52 -50 53 0
52 -53 0
50 -53 0
-53 -46 54 0
53 -54 0
46 -54 0
-54 -42 55 0
54 -55 0
42 -55 0
-55 0
